c User generated cnf file
p cnf 15 32
8 -3 8 0 
3 -8 11 0 
-1 3 3 0 
11 -7 10 0 
4 14 -9 0 
8 10 -8 0 
-7 1 3 0 
-12 11 4 0 
15 -10 14 0 
-12 15 12 0 
14 -8 15 0 
-13 10 10 0 
6 -8 8 0 
7 -13 3 0 
4 3 -5 0 
-14 11 5 0 
11 6 -13 0 
10 -8 5 0 
3 -7 7 0 
14 -5 2 0 
-14 9 9 0 
-5 1 8 0 
3 9 -10 0 
-2 9 8 0 
11 6 -7 0 
1 -15 12 0 
1 -3 14 0 
-5 9 7 0 
-12 1 11 0 
-2 9 2 0 
6 -10 9 0 
9 -7 13 0 
